p edge 105 1155 87
e 16 22
e 16 17
e 16 96
e 16 100
e 16 68
e 16 77
e 16 54
e 16 81
e 16 90
e 16 13
e 16 35
e 16 53
e 16 5
e 16 43
e 16 29
e 16 11
e 16 99
e 16 85
e 16 51
e 16 60
e 16 32
e 16 1
e 22 56
e 22 42
e 22 102
e 22 92
e 22 78
e 22 105
e 22 12
e 22 1
e 22 81
e 22 40
e 22 67
e 22 48
e 22 34
e 22 24
e 22 90
e 22 85
e 22 71
e 22 89
e 22 5
e 22 61
e 22 79
e 2 87
e 2 105
e 2 77
e 2 86
e 2 54
e 2 67
e 2 76
e 2 44
e 2 62
e 2 71
e 2 25
e 2 34
e 2 52
e 2 38
e 2 19
e 2 89
e 2 98
e 2 69
e 2 36
e 2 45
e 2 13
e 2 17
e 87 35
e 87 57
e 87 46
e 87 101
e 87 96
e 87 105
e 87 49
e 87 3
e 87 95
e 87 60
e 87 61
e 87 25
e 87 14
e 87 55
e 87 86
e 87 78
e 87 70
e 87 83
e 87 26
e 87 92
e 87 18
e 37 54
e 37 63
e 37 72
e 37 90
e 37 3
e 37 66
e 37 43
e 37 14
e 37 38
e 37 31
e 37 103
e 37 89
e 37 23
e 37 15
e 37 4
e 37 97
e 37 74
e 37 42
e 37 64
e 37 18
e 37 59
e 37 82
e 54 48
e 54 82
e 54 68
e 54 86
e 54 95
e 54 99
e 54 76
e 54 85
e 54 28
e 54 66
e 54 33
e 54 36
e 54 98
e 54 75
e 54 93
e 54 79
e 54 97
e 54 12
e 54 78
e 33 102
e 33 3
e 33 65
e 33 51
e 33 15
e 33 73
e 33 7
e 33 4
e 33 105
e 33 26
e 33 27
e 33 72
e 33 18
e 33 44
e 33 10
e 33 38
e 33 47
e 33 19
e 33 94
e 33 89
e 33 93
e 102 74
e 102 103
e 102 23
e 102 4
e 102 45
e 102 67
e 102 99
e 102 12
e 102 32
e 102 89
e 102 62
e 102 73
e 102 26
e 102 27
e 102 95
e 102 57
e 102 38
e 102 41
e 102 5
e 102 82
e 68 69
e 68 32
e 68 19
e 68 96
e 68 66
e 68 100
e 68 77
e 68 81
e 68 76
e 68 17
e 68 56
e 68 47
e 68 12
e 68 94
e 68 103
e 68 89
e 68 88
e 68 97
e 68 7
e 68 48
e 69 52
e 69 63
e 69 75
e 69 70
e 69 74
e 69 83
e 69 20
e 69 39
e 69 42
e 69 53
e 69 15
e 69 7
e 69 67
e 69 96
e 69 18
e 69 21
e 69 72
e 69 13
e 69 26
e 69 8
e 48 72
e 48 71
e 48 52
e 48 10
e 48 21
e 48 99
e 48 46
e 48 19
e 48 38
e 48 97
e 48 30
e 48 41
e 48 55
e 48 44
e 48 6
e 48 36
e 48 31
e 48 105
e 48 4
e 14 98
e 14 93
e 14 52
e 14 83
e 14 55
e 14 23
e 14 32
e 14 50
e 14 45
e 14 78
e 14 4
e 14 77
e 14 72
e 14 35
e 14 53
e 14 21
e 14 15
e 14 24
e 14 104
e 14 85
e 98 96
e 98 85
e 98 23
e 98 80
e 98 105
e 98 64
e 98 99
e 98 18
e 98 59
e 98 27
e 98 19
e 98 76
e 98 103
e 98 49
e 98 11
e 98 90
e 98 41
e 98 60
e 98 6
e 63 75
e 63 84
e 63 10
e 63 74
e 63 83
e 63 59
e 63 78
e 63 62
e 63 43
e 63 30
e 63 41
e 63 105
e 63 60
e 63 72
e 63 90
e 63 71
e 63 61
e 63 94
e 63 103
e 63 56
e 19 27
e 19 45
e 19 9
e 19 92
e 19 101
e 19 91
e 19 59
e 19 49
e 19 44
e 19 43
e 19 20
e 19 94
e 19 75
e 19 84
e 19 83
e 19 42
e 19 60
e 27 101
e 27 105
e 27 91
e 27 6
e 27 77
e 27 95
e 27 81
e 27 49
e 27 58
e 27 67
e 27 52
e 27 1
e 27 29
e 27 4
e 27 80
e 27 70
e 27 13
e 27 28
e 17 94
e 17 80
e 17 84
e 17 93
e 17 88
e 17 47
e 17 74
e 17 11
e 17 51
e 17 46
e 17 23
e 17 92
e 17 101
e 17 59
e 17 81
e 17 53
e 17 7
e 17 30
e 17 24
e 94 9
e 94 39
e 94 73
e 94 103
e 94 32
e 94 89
e 94 5
e 94 30
e 94 41
e 94 96
e 94 3
e 94 71
e 94 60
e 94 61
e 94 95
e 94 104
e 94 74
e 18 59
e 18 58
e 18 11
e 18 3
e 18 34
e 18 9
e 18 103
e 18 84
e 18 93
e 18 70
e 18 83
e 18 60
e 18 46
e 18 31
e 18 96
e 18 73
e 18 82
e 59 105
e 59 51
e 59 72
e 59 85
e 59 5
e 59 80
e 59 66
e 59 35
e 59 89
e 59 93
e 59 56
e 59 79
e 59 88
e 59 45
e 59 46
e 59 101
e 105 21
e 105 24
e 105 57
e 105 52
e 105 6
e 105 66
e 105 31
e 105 50
e 105 99
e 105 42
e 105 15
e 105 83
e 105 7
e 72 67
e 72 29
e 72 24
e 72 89
e 72 75
e 72 93
e 72 38
e 72 79
e 72 41
e 72 30
e 72 60
e 72 12
e 72 100
e 72 45
e 72 76
e 8 36
e 8 100
e 8 45
e 8 40
e 8 49
e 8 58
e 8 67
e 8 76
e 8 53
e 8 62
e 8 39
e 8 29
e 8 4
e 8 90
e 8 99
e 8 75
e 8 93
e 8 61
e 8 74
e 8 42
e 8 50
e 36 93
e 36 97
e 36 74
e 36 30
e 36 78
e 36 6
e 36 23
e 36 73
e 36 82
e 36 77
e 36 86
e 36 104
e 36 76
e 36 62
e 36 43
e 36 10
e 36 99
e 36 103
e 45 10
e 45 13
e 45 104
e 45 66
e 45 75
e 45 84
e 45 38
e 45 88
e 45 97
e 45 3
e 45 23
e 45 50
e 45 96
e 45 21
e 45 62
e 10 64
e 10 50
e 10 1
e 10 81
e 10 58
e 10 26
e 10 25
e 10 95
e 10 57
e 10 66
e 10 75
e 10 61
e 10 65
e 10 28
e 10 55
e 10 13
e 10 96
e 64 60
e 64 5
e 64 44
e 64 90
e 64 85
e 64 20
e 64 66
e 64 75
e 64 84
e 64 70
e 64 23
e 64 4
e 64 40
e 64 32
e 64 21
e 64 62
e 64 51
e 64 92
e 64 76
e 90 67
e 90 29
e 90 46
e 90 49
e 90 30
e 90 13
e 90 5
e 90 77
e 90 47
e 90 58
e 90 88
e 90 50
e 90 23
e 90 42
e 90 34
e 9 104
e 9 85
e 9 88
e 9 56
e 9 65
e 9 74
e 9 51
e 9 28
e 9 32
e 9 97
e 9 73
e 9 40
e 9 49
e 9 26
e 9 35
e 9 30
e 9 5
e 9 20
e 9 29
e 1 15
e 1 99
e 1 103
e 1 89
e 1 57
e 1 75
e 1 79
e 1 56
e 1 65
e 1 60
e 1 5
e 1 23
e 1 4
e 1 97
e 1 92
e 1 21
e 1 25
e 1 34
e 15 25
e 15 52
e 15 29
e 15 80
e 15 75
e 15 84
e 15 56
e 15 83
e 15 42
e 15 78
e 15 46
e 15 55
e 15 96
e 15 100
e 15 77
e 15 95
e 29 95
e 29 62
e 29 39
e 29 24
e 29 5
e 29 71
e 29 75
e 29 56
e 29 83
e 29 60
e 29 46
e 29 31
e 29 101
e 29 73
e 29 12
e 95 70
e 95 21
e 95 89
e 95 62
e 95 101
e 95 99
e 95 11
e 95 30
e 95 74
e 95 25
e 95 47
e 95 97
e 95 61
e 95 53
e 7 58
e 7 67
e 7 4
e 7 62
e 7 39
e 7 11
e 7 38
e 7 80
e 7 89
e 7 56
e 7 74
e 7 23
e 7 32
e 7 40
e 7 96
e 7 73
e 7 100
e 58 40
e 58 93
e 58 79
e 58 88
e 58 97
e 58 43
e 58 38
e 58 101
e 58 100
e 58 28
e 58 47
e 58 39
e 58 12
e 58 23
e 58 42
e 58 34
e 6 93
e 6 61
e 6 70
e 6 74
e 6 51
e 6 46
e 6 41
e 6 13
e 6 40
e 6 26
e 6 73
e 6 91
e 6 104
e 6 62
e 6 39
e 6 11
e 6 24
e 93 74
e 93 88
e 93 80
e 93 4
e 93 75
e 93 96
e 93 78
e 93 100
e 93 104
e 93 57
e 93 38
e 56 71
e 56 44
e 56 57
e 56 47
e 56 20
e 56 50
e 56 39
e 56 73
e 56 24
e 56 35
e 56 11
e 56 41
e 56 3
e 67 32
e 67 62
e 67 13
e 67 35
e 67 46
e 67 38
e 67 41
e 67 88
e 67 52
e 67 83
e 67 92
e 67 42
e 67 26
e 11 28
e 11 101
e 11 82
e 11 100
e 11 81
e 11 44
e 11 71
e 11 39
e 11 57
e 11 75
e 11 61
e 11 70
e 11 79
e 11 42
e 28 103
e 28 25
e 28 83
e 28 51
e 28 46
e 28 55
e 28 20
e 28 91
e 28 100
e 28 99
e 28 35
e 28 44
e 28 13
e 28 57
e 28 34
e 28 43
e 75 55
e 75 39
e 75 12
e 75 103
e 75 89
e 75 79
e 75 82
e 75 60
e 34 39
e 34 43
e 34 71
e 34 13
e 34 79
e 34 74
e 34 97
e 34 92
e 34 25
e 34 96
e 34 82
e 34 12
e 34 40
e 34 49
e 34 53
e 39 85
e 39 32
e 39 60
e 39 46
e 39 50
e 39 101
e 39 78
e 39 82
e 39 25
e 39 57
e 39 12
e 104 78
e 104 99
e 104 4
e 104 65
e 104 84
e 104 79
e 104 24
e 104 44
e 104 101
e 104 35
e 104 38
e 104 77
e 104 85
e 104 53
e 104 86
e 3 51
e 3 60
e 3 46
e 3 31
e 3 101
e 3 73
e 3 100
e 3 77
e 3 21
e 3 20
e 3 5
e 3 99
e 3 85
e 3 52
e 3 88
e 40 82
e 40 86
e 40 99
e 40 85
e 40 44
e 40 43
e 40 5
e 40 35
e 40 30
e 40 70
e 40 97
e 40 25
e 40 41
e 40 20
e 82 81
e 82 21
e 82 51
e 82 24
e 82 65
e 82 79
e 82 91
e 82 100
e 82 47
e 82 20
e 82 31
e 82 26
e 74 84
e 74 83
e 74 92
e 74 78
e 74 31
e 74 81
e 74 70
e 74 65
e 84 25
e 84 55
e 84 47
e 84 31
e 84 4
e 84 32
e 84 51
e 84 13
e 84 73
e 84 89
e 84 57
e 84 79
e 84 52
e 4 5
e 4 61
e 4 79
e 4 50
e 4 26
e 4 12
e 4 100
e 4 76
e 4 30
e 55 89
e 55 66
e 55 61
e 55 70
e 55 65
e 55 25
e 55 92
e 55 101
e 55 96
e 55 91
e 55 77
e 55 86
e 55 57
e 55 5
e 89 91
e 89 77
e 89 31
e 89 88
e 89 86
e 89 35
e 89 44
e 51 100
e 51 86
e 51 62
e 51 71
e 51 42
e 51 80
e 51 88
e 51 32
e 51 21
e 51 66
e 51 35
e 60 52
e 60 44
e 60 53
e 60 26
e 60 32
e 60 13
e 60 80
e 60 49
e 25 42
e 25 31
e 25 26
e 25 101
e 25 78
e 25 96
e 25 76
e 25 35
e 25 20
e 25 103
e 44 61
e 44 97
e 44 65
e 44 50
e 44 43
e 44 100
e 44 81
e 44 53
e 44 66
e 44 31
e 61 20
e 61 31
e 61 50
e 61 12
e 61 78
e 61 96
e 61 91
e 61 85
e 61 49
e 61 66
e 24 92
e 24 73
e 24 81
e 24 49
e 24 76
e 24 26
e 24 57
e 24 43
e 24 13
e 24 99
e 24 80
e 24 83
e 92 43
e 92 46
e 92 38
e 92 77
e 92 30
e 92 23
e 92 53
e 92 31
e 92 50
e 92 42
e 92 79
e 21 77
e 21 49
e 21 43
e 21 38
e 21 99
e 21 80
e 21 70
e 21 88
e 21 47
e 21 83
e 21 31
e 52 83
e 52 50
e 52 96
e 52 46
e 52 35
e 52 86
e 52 71
e 52 57
e 52 70
e 52 79
e 52 88
e 83 23
e 83 88
e 83 78
e 83 81
e 83 62
e 83 73
e 83 100
e 5 97
e 5 101
e 5 31
e 5 30
e 5 38
e 5 46
e 5 32
e 5 13
e 97 66
e 97 47
e 97 20
e 97 12
e 97 81
e 97 35
e 97 41
e 97 71
e 80 47
e 80 31
e 80 78
e 80 12
e 80 103
e 80 26
e 80 49
e 80 43
e 80 100
e 80 30
e 80 71
e 71 101
e 71 65
e 71 73
e 71 100
e 71 86
e 71 66
e 71 31
e 71 103
e 71 79
e 50 70
e 50 20
e 50 96
e 50 73
e 50 91
e 50 76
e 50 43
e 50 57
e 50 35
e 70 47
e 70 26
e 70 79
e 70 88
e 70 65
e 70 57
e 70 41
e 70 30
e 41 46
e 41 77
e 41 86
e 41 81
e 41 76
e 41 62
e 41 43
e 41 99
e 41 85
e 41 79
e 46 101
e 46 91
e 46 85
e 46 32
e 46 66
e 81 99
e 81 32
e 81 49
e 81 88
e 81 77
e 81 20
e 81 12
e 81 53
e 42 88
e 42 26
e 42 13
e 42 91
e 42 86
e 42 35
e 42 49
e 42 85
e 78 13
e 78 43
e 78 35
e 78 77
e 78 23
e 78 101
e 78 20
e 62 73
e 62 77
e 62 76
e 62 85
e 62 49
e 62 30
e 62 66
e 43 26
e 43 91
e 43 86
e 43 32
e 43 38
e 103 47
e 103 88
e 103 12
e 103 53
e 103 86
e 103 13
e 103 73
e 103 65
e 26 30
e 26 99
e 26 57
e 26 20
e 26 49
e 30 31
e 30 86
e 30 49
e 30 76
e 30 85
e 66 79
e 66 32
e 66 73
e 66 86
e 66 76
e 66 53
e 86 32
e 86 13
e 86 65
e 86 12
e 86 23
e 13 99
e 13 47
e 13 23
e 65 96
e 65 20
e 65 76
e 65 32
e 65 47
e 65 57
e 65 73
e 65 38
e 65 49
e 101 47
e 101 88
e 101 12
e 101 53
e 77 38
e 77 96
e 77 20
e 77 23
e 57 73
e 57 76
e 57 85
e 57 35
e 91 73
e 91 76
e 91 49
e 91 79
e 91 47
e 91 88
e 91 12
e 91 100
e 91 53
e 91 99
e 47 88
e 47 31
e 47 85
e 47 38
e 85 79
e 85 23
e 100 35
e 100 76
e 100 20
e 32 35
e 32 53
e 12 99
e 12 38
e 12 53
e 96 23
e 96 53
e 31 49
e 31 38
e 79 38
e 76 20
e 76 53
e 49 53
e 35 20
e 20 23
e 53 23
